p cnf 7 21 
c Factors encoded in variables 1-4 and 5-7
c Target number: 63
c Factors: 9 x 7
4 2 7 0
3 -2 0
4 7 0
2 6 0
-4 -3 -2 0
-4 7 6 0
1 0
4 -2 -6 0
-4 2 7 0
7 6 0
5 0
4 3 2 0
6 7 0
4 -2 -7 6 0
-4 -2 -7 -6 0
4 3 6 0
3 7 0
-3 -7 0
4 7 -6 0
-4 -3 -7 -6 0
2 3 4 0
